2custo50-1-2-4-3-5-6.lp
[[ 0 -1  0 -1  0  0]
 [ 1  0 -1 -1  0  0]
 [ 0  1  0 -1 -1 -1]
 [ 1  1  1  0 -1  0]
 [ 0  0  1  1  0 -1]
 [ 0  0  1  0  1  0]]
min:1x24 1x12 1x65 1x21 5x23 5x63 5x32 5x45 1x42 1x43 1x35 5x41 5x36 1x53 5x54 1x34 1x56 5x14 ;
 x12 - x21  x14 - x41 = 10;
 x12 - x21  x23 - x32  x24 - x42 = 0;
 x23 - x32  x34 - x43  x35 - x53  x36 - x63 = 0;
 x14 - x41  x24 - x42  x34 - x43  x45 - x54 = 0;
 x35 - x53  x45 - x54  x56 - x65 = 0;
 x36 - x63  x56 - x65 = 10;

