2custo50-1-2-4-3-5-6.in
6 9
1 6 10
1 2 1
1 4 5
2 3 5
2 4 1
3 4 1
3 5 1
3 6 5
4 5 5
5 6 1
